(set-info :status unknown)
(declare-const symbol_68 (_ BitVec 32))
(declare-const symbol_25 (_ BitVec 32))
(declare-const symbol_17 (_ BitVec 32))
(declare-const symbol_33 (_ BitVec 32))
(declare-const symbol_54 (_ BitVec 32))
(declare-const symbol_26 (_ BitVec 32))
(declare-const symbol_29 (_ BitVec 32))
(declare-const symbol_23 (_ BitVec 32))
(declare-const symbol_15 (_ BitVec 32))
(declare-const symbol_0 (_ BitVec 32))
(declare-const symbol_9 (_ BitVec 32))
(declare-const symbol_44 (_ BitVec 32))
(declare-const symbol_36 (_ BitVec 32))
(declare-const symbol_64 (_ BitVec 32))
(declare-const symbol_61 (_ BitVec 32))
(declare-const symbol_11 (_ BitVec 32))
(declare-const symbol_3 (_ BitVec 32))
(declare-const symbol_14 (_ BitVec 32))
(declare-const symbol_46 (_ BitVec 32))
(declare-const symbol_41 (_ BitVec 32))
(declare-const symbol_50 (_ BitVec 32))
(declare-const symbol_66 (_ BitVec 32))
(declare-const symbol_21 (_ BitVec 32))
(declare-const symbol_19 (_ BitVec 32))
(declare-const symbol_51 (_ BitVec 32))
(declare-const symbol_31 (_ BitVec 32))
(declare-const symbol_7 (_ BitVec 32))
(declare-const symbol_59 (_ BitVec 32))
(declare-const symbol_56 (_ BitVec 32))
(declare-const symbol_39 (_ BitVec 32))
(declare-const symbol_70 (_ BitVec 32))
(declare-const symbol_5 (_ BitVec 32))
(declare-const symbol_48 (_ BitVec 32))
(assert (not (= symbol_70 (_ bv4 32))))
(assert (not (not (= symbol_70 (_ bv2 32)))))
(assert (not (not (= symbol_68 (_ bv2 32)))))
(assert (not (not (= symbol_66 (_ bv2 32)))))
(assert (not (not (= symbol_64 (_ bv2 32)))))
(assert (not (not (= symbol_61 (_ bv2 32)))))
(assert (not (not (= symbol_59 (_ bv2 32)))))
(assert (not (not (= symbol_56 (_ bv2 32)))))
(assert (not (not (= symbol_54 (_ bv2 32)))))
(assert (not (not (= symbol_51 (_ bv2 32)))))
(assert (not (not (= symbol_50 (_ bv2 32)))))
(assert (not (not (= symbol_48 (_ bv2 32)))))
(assert (not (not (= symbol_46 (_ bv2 32)))))
(assert (not (not (= symbol_44 (_ bv2 32)))))
(assert (not (not (= symbol_41 (_ bv2 32)))))
(assert (not (not (= symbol_39 (_ bv2 32)))))
(assert (not (not (= symbol_36 (_ bv2 32)))))
(assert (not (not (= symbol_33 (_ bv2 32)))))
(assert (not (not (= symbol_31 (_ bv2 32)))))
(assert (not (not (= symbol_29 (_ bv2 32)))))
(assert (not (not (= symbol_26 (_ bv2 32)))))
(assert (not (not (= symbol_25 (_ bv2 32)))))
(assert (not (not (= symbol_23 (_ bv2 32)))))
(assert (not (not (= symbol_21 (_ bv2 32)))))
(assert (not (not (= symbol_19 (_ bv2 32)))))
(assert (not (not (= symbol_17 (_ bv2 32)))))
(assert (not (not (= symbol_15 (_ bv2 32)))))
(assert (not (not (= symbol_14 (_ bv2 32)))))
(assert (not (not (= symbol_11 (_ bv2 32)))))
(assert (not (not (= symbol_9 (_ bv2 32)))))
(assert (not (not (= symbol_7 (_ bv2 32)))))
(assert (not (not (= symbol_5 (_ bv2 32)))))
(assert (not (not (= symbol_3 (_ bv2 32)))))
(assert (not (not (= symbol_0 (_ bv12 32)))))
(assert (not (= symbol_0 (_ bv2 32))))
(check-sat)